NAME = SAfile180,
TOURSIZE = 180,
LENGTH = 2050,
159,153,123,124,55,169,177,104,145,156,97,10,34,170,164,54,28,73,33,125,58,16,29,152,139,43,52,135,158,116,172,45,12,20,122,35,107,149,150,132,6,126,127,146,143,100,65,112,81,48,94,26,101,180,176,103,96,155,128,77,70,23,37,36,66,72,82,85,60,64,171,83,41,63,11,1,91,98,142,57,113,32,4,50,38,3,39,75,167,90,136,76,131,67,69,105,110,111,114,27,141,31,53,15,61,162,79,93,8,21,42,138,46,40,147,51,47,178,7,120,115,165,160,92,95,109,30,108,144,133,25,88,102,129,154,71,119,99,49,117,151,161,59,148,9,5,140,22,175,80,121,179,166,106,19,17,68,2,18,134,13,62,137,24,44,118,89,168,14,87,86,56,157,84,130,174,173,163,74,78